p cnf 100 1
100 0
w 1 0.774269
w 2 1 1
w 2 -1 0
w 3 2 0.16962
w 3 -2 0.939627
w 4 3 0.900743
w 4 -3 0.554285
w 5 4 0.251743
w 5 -4 0.0760383
w 6 5 0
w 6 -5 1
w 7 6 0.525533
w 7 -6 0.0876795
w 8 7 0
w 8 -7 1
w 9 8 0.317534
w 9 -8 0.333413
w 10 9 0
w 10 -9 1
w 11 1 0
w 11 -1 1
w 12 11 2 1
w 12 11 -2 0
w 12 -11 2 0
w 12 -11 -2 0
w 13 12 3 0.0673013
w 13 12 -3 0.915549
w 13 -12 3 0.535172
w 13 -12 -3 0.236922
w 14 13 4 0.443425
w 14 13 -4 0.137665
w 14 -13 4 0.409462
w 14 -13 -4 0.395745
w 15 14 5 1
w 15 14 -5 1
w 15 -14 5 1
w 15 -14 -5 0
w 16 15 6 0.869127
w 16 15 -6 0.37691
w 16 -15 6 0.357918
w 16 -15 -6 0.436417
w 17 16 7 0.691332
w 17 16 -7 0.908342
w 17 -16 7 0.812949
w 17 -16 -7 0.17422
w 18 17 8 1
w 18 17 -8 1
w 18 -17 8 0
w 18 -17 -8 0
w 19 18 9 1
w 19 18 -9 1
w 19 -18 9 0
w 19 -18 -9 1
w 20 19 10 1
w 20 19 -10 0
w 20 -19 10 0
w 20 -19 -10 1
w 21 11 1
w 21 -11 0
w 22 21 12 0.535337
w 22 21 -12 0.413016
w 22 -21 12 0.845928
w 22 -21 -12 0.518861
w 23 22 13 1
w 23 22 -13 0
w 23 -22 13 0
w 23 -22 -13 1
w 24 23 14 0.626903
w 24 23 -14 0.73023
w 24 -23 14 0.742332
w 24 -23 -14 0.672599
w 25 24 15 0.213194
w 25 24 -15 0.659814
w 25 -24 15 0.481138
w 25 -24 -15 0.286652
w 26 25 16 1
w 26 25 -16 0
w 26 -25 16 1
w 26 -25 -16 0
w 27 26 17 1
w 27 26 -17 0
w 27 -26 17 0
w 27 -26 -17 1
w 28 27 18 0
w 28 27 -18 0
w 28 -27 18 0
w 28 -27 -18 1
w 29 28 19 1
w 29 28 -19 0
w 29 -28 19 0
w 29 -28 -19 1
w 30 29 20 0.36756
w 30 29 -20 0.82891
w 30 -29 20 0.60136
w 30 -29 -20 0.0401591
w 31 21 0.814554
w 31 -21 0.699973
w 32 31 22 0.101205
w 32 31 -22 0.0627904
w 32 -31 22 0.339626
w 32 -31 -22 0.376864
w 33 32 23 0.792834
w 33 32 -23 0.496707
w 33 -32 23 0.946376
w 33 -32 -23 0.488202
w 34 33 24 0.306314
w 34 33 -24 0.815139
w 34 -33 24 0.98283
w 34 -33 -24 0.201589
w 35 34 25 0.941392
w 35 34 -25 0.615725
w 35 -34 25 0.577188
w 35 -34 -25 0.122791
w 36 35 26 0.317846
w 36 35 -26 0.221471
w 36 -35 26 0.76567
w 36 -35 -26 0.685406
w 37 36 27 1
w 37 36 -27 1
w 37 -36 27 0
w 37 -36 -27 0
w 38 37 28 0
w 38 37 -28 0
w 38 -37 28 1
w 38 -37 -28 1
w 39 38 29 0.152112
w 39 38 -29 0.683531
w 39 -38 29 0.15636
w 39 -38 -29 0.0984872
w 40 39 30 1
w 40 39 -30 1
w 40 -39 30 1
w 40 -39 -30 0
w 41 31 0.541963
w 41 -31 0.950777
w 42 41 32 0
w 42 41 -32 1
w 42 -41 32 0
w 42 -41 -32 0
w 43 42 33 0
w 43 42 -33 1
w 43 -42 33 0
w 43 -42 -33 0
w 44 43 34 0.443041
w 44 43 -34 0.273507
w 44 -43 34 0.456648
w 44 -43 -34 0.72583
w 45 44 35 0.347345
w 45 44 -35 0.385483
w 45 -44 35 0.913947
w 45 -44 -35 0.0308763
w 46 45 36 0.0124346
w 46 45 -36 0.202609
w 46 -45 36 0.568398
w 46 -45 -36 0.417236
w 47 46 37 1
w 47 46 -37 0
w 47 -46 37 1
w 47 -46 -37 0
w 48 47 38 1
w 48 47 -38 0
w 48 -47 38 0
w 48 -47 -38 1
w 49 48 39 0.268924
w 49 48 -39 0.409997
w 49 -48 39 0.242588
w 49 -48 -39 0.530381
w 50 49 40 1
w 50 49 -40 1
w 50 -49 40 0
w 50 -49 -40 0
w 51 41 0.293309
w 51 -41 0.952157
w 52 51 42 0
w 52 51 -42 1
w 52 -51 42 0
w 52 -51 -42 1
w 53 52 43 0
w 53 52 -43 1
w 53 -52 43 0
w 53 -52 -43 1
w 54 53 44 0.106568
w 54 53 -44 0.30132
w 54 -53 44 0.906292
w 54 -53 -44 0.957164
w 55 54 45 0.280789
w 55 54 -45 0.244758
w 55 -54 45 0.800616
w 55 -54 -45 0.549714
w 56 55 46 0.043204
w 56 55 -46 0.0800949
w 56 -55 46 0.91272
w 56 -55 -46 0.191369
w 57 56 47 0
w 57 56 -47 1
w 57 -56 47 0
w 57 -56 -47 0
w 58 57 48 0.837503
w 58 57 -48 0.944758
w 58 -57 48 0.731372
w 58 -57 -48 0.46408
w 59 58 49 0
w 59 58 -49 1
w 59 -58 49 1
w 59 -58 -49 0
w 60 59 50 1
w 60 59 -50 1
w 60 -59 50 0
w 60 -59 -50 1
w 61 51 0
w 61 -51 1
w 62 61 52 0.600629
w 62 61 -52 0.4372
w 62 -61 52 0.198721
w 62 -61 -52 0.255384
w 63 62 53 0
w 63 62 -53 1
w 63 -62 53 1
w 63 -62 -53 0
w 64 63 54 0.467954
w 64 63 -54 0.0851016
w 64 -63 54 0.3498
w 64 -63 -54 0.216292
w 65 64 55 0.294558
w 65 64 -55 0.947664
w 65 -64 55 0.386685
w 65 -64 -55 0.459007
w 66 65 56 0.0457411
w 66 65 -56 0.260382
w 66 -65 56 0.156818
w 66 -65 -56 0.477557
w 67 66 57 0.555526
w 67 66 -57 0.210692
w 67 -66 57 0.0905272
w 67 -66 -57 0.911397
w 68 67 58 0.739535
w 68 67 -58 0.512027
w 68 -67 58 0.284476
w 68 -67 -58 0.938256
w 69 68 59 0.764879
w 69 68 -59 0.217072
w 69 -68 59 0.935515
w 69 -68 -59 0.436652
w 70 69 60 0.547813
w 70 69 -60 0.904606
w 70 -69 60 0.634507
w 70 -69 -60 0.897612
w 71 61 0
w 71 -61 1
w 72 71 62 1
w 72 71 -62 0
w 72 -71 62 0
w 72 -71 -62 1
w 73 72 63 0.911559
w 73 72 -63 0.0900594
w 73 -72 63 0.467094
w 73 -72 -63 0.633868
w 74 73 64 0.677786
w 74 73 -64 0.724395
w 74 -73 64 0.556982
w 74 -73 -64 0.525062
w 75 74 65 0
w 75 74 -65 0
w 75 -74 65 0
w 75 -74 -65 1
w 76 75 66 0.619259
w 76 75 -66 0.771934
w 76 -75 66 0.0110691
w 76 -75 -66 0.168664
w 77 76 67 0
w 77 76 -67 0
w 77 -76 67 1
w 77 -76 -67 0
w 78 77 68 1
w 78 77 -68 0
w 78 -77 68 1
w 78 -77 -68 0
w 79 78 69 1
w 79 78 -69 1
w 79 -78 69 0
w 79 -78 -69 0
w 80 79 70 0.438496
w 80 79 -70 0.330529
w 80 -79 70 0.331002
w 80 -79 -70 0.963558
w 81 71 0.400011
w 81 -71 0.773096
w 82 81 72 0
w 82 81 -72 0
w 82 -81 72 1
w 82 -81 -72 1
w 83 82 73 1
w 83 82 -73 0
w 83 -82 73 0
w 83 -82 -73 1
w 84 83 74 0.310829
w 84 83 -74 0.148021
w 84 -83 74 0.955002
w 84 -83 -74 0.415964
w 85 84 75 0
w 85 84 -75 0
w 85 -84 75 1
w 85 -84 -75 1
w 86 85 76 0.506426
w 86 85 -76 0.594109
w 86 -85 76 0.356794
w 86 -85 -76 0.944922
w 87 86 77 0.687796
w 87 86 -77 0.908481
w 87 -86 77 0.719098
w 87 -86 -77 0.0878071
w 88 87 78 0.915743
w 88 87 -78 0.324238
w 88 -87 78 0.0290896
w 88 -87 -78 0.731648
w 89 88 79 1
w 89 88 -79 0
w 89 -88 79 1
w 89 -88 -79 1
w 90 89 80 0.206188
w 90 89 -80 0.972758
w 90 -89 80 0.651976
w 90 -89 -80 0.161189
w 91 81 0
w 91 -81 1
w 92 91 82 1
w 92 91 -82 0
w 92 -91 82 0
w 92 -91 -82 0
w 93 92 83 1
w 93 92 -83 0
w 93 -92 83 1
w 93 -92 -83 1
w 94 93 84 1
w 94 93 -84 0
w 94 -93 84 0
w 94 -93 -84 1
w 95 94 85 0.920288
w 95 94 -85 0.0501087
w 95 -94 85 0.215072
w 95 -94 -85 0.30796
w 96 95 86 0.875788
w 96 95 -86 0.969888
w 96 -95 86 0.270279
w 96 -95 -86 0.0819754
w 97 96 87 0.922256
w 97 96 -87 0.243165
w 97 -96 87 0.331368
w 97 -96 -87 0.026332
w 98 97 88 0
w 98 97 -88 1
w 98 -97 88 1
w 98 -97 -88 0
w 99 98 89 0
w 99 98 -89 1
w 99 -98 89 0
w 99 -98 -89 1
w 100 99 90 0.743106
w 100 99 -90 0.430256
w 100 -99 90 0.411546
w 100 -99 -90 0.634305